letting n =  10
letting blocks =  [[1, 2], [1, 4], [1, 5], [1, 6], [1, 10], [2, 10], [3, 1], [3, 2], [3, 3], [3, 10], [4, 1], [4, 8], [4, 9], [5, 9], [6, 4], [6, 7], [7, 3], [7, 7], [8, 8], [9, 2], [9, 4], [9, 7], [9, 9], [10, 1], [10, 4], [10, 9]]
